p cnf 10 50
-9 10 5 0
-5 10 -9 0
9 -5 -10 0
4 -7 9 0
1 9 -6 0
-2 9 4 0
3 6 -10 0
4 -8 7 0
-4 7 2 0
3 2 -10 0
5 -9 -4 0
-6 4 -5 0
9 1 -3 0
-4 -2 -8 0
4 -8 1 0
-5 -10 3 0
-6 -7 4 0
-5 -8 -7 0
-8 -1 -5 0
8 -10 4 0
-8 10 -7 0
2 9 -1 0
-8 -6 4 0
2 -5 9 0
-3 -9 10 0
9 5 7 0
4 -7 5 0
5 -4 8 0
-10 1 3 0
6 -1 -3 0
-4 10 -7 0
4 -2 5 0
7 4 3 0
-3 -2 6 0
4 -3 -9 0
9 4 -5 0
2 7 -8 0
-4 10 2 0
6 2 7 0
-7 -3 -2 0
3 -4 -1 0
-4 7 5 0
1 5 2 0
6 -7 -1 0
-3 -9 -5 0
-4 -7 2 0
-5 -3 -4 0
-1 -8 3 0
-5 4 10 0
-1 7 6 0
